\ENCODING=ISO-8859-1
\Problem name: IloCplex

Minimize
 obj: y_0 + y_1 + y_2 + y_3 + y_4 + y_5 + y_6 + y_7 + y_8 + y_9
Subject To
 c1:   x_0 <= 850
 c2:   x_1 <= 850
 c3:   x_2 <= 100000
 c4:   x_3 <= 850
 c5:   x_4 <= 850
 c6:   x_5 <= 100000
 c7:   x_6 <= 850
 c8:   x_7 <= 850
 c9:   x_8 <= 100000
 c10:  x_9 <= 850
 c11:  x_10 <= 850
 c12:  x_11 <= 100000
 c13:  x_12 <= 850
 c14:  x_13 <= 850
 c15:  x_14 <= 100000
 c16:  x_15 <= 850
 c17:  x_16 <= 850
 c18:  x_17 <= 100000
 c19:  x_18 <= 850
 c20:  x_19 <= 850
 c21:  x_20 <= 100000
 c22:  x_21 <= 850
 c23:  x_22 <= 850
 c24:  x_23 <= 100000
 c25:  x_24 <= 850
 c26:  x_25 <= 850
 c27:  x_26 <= 100000
 c28:  x_27 <= 850
 c29:  x_28 <= 850
 c30:  x_29 <= 100000
 c31:  x_0 + x_1 + x_2 + p_00 + p_01 + p_02 + p_03 + p_04 + p_05 + p_06 + p_07
       + p_08 + p_09 + p_010 + p_011 + p_012 + p_013 + p_014 + p_015 + p_016
       + p_017 + p_018 + p_019 + p_020 + p_021 + p_022 + p_023 + p_024 + p_025
       + p_026 + p_027 + p_028 + p_029 - x_30 + p_030 + p_031 + p_032 + p_033
       + p_034 + p_035 + p_036 + p_037 + p_038 + p_039 + 2 z_0 - y_0  = 1482
 c32:  x_3 + x_4 + x_5 + x_30 + p_10 + p_11 + p_12 + p_13 + p_14 + p_15 + p_16
       + p_17 + p_18 + p_19 + p_110 + p_111 + p_112 + p_113 + p_114 + p_115
       + p_116 + p_117 + p_118 + p_119 + p_120 + p_121 + p_122 + p_123 + p_124
       + p_125 + p_126 + p_127 + p_128 + p_129 + p_130 - x_31 + p_131 + p_132
       + p_133 + p_134 + p_135 + p_136 + p_137 + p_138 + p_139 + 2 z_1 - y_1
        = 1433
 c33:  x_6 + x_7 + x_8 + x_31 + p_20 + p_21 + p_22 + p_23 + p_24 + p_25 + p_26
       + p_27 + p_28 + p_29 + p_210 + p_211 + p_212 + p_213 + p_214 + p_215
       + p_216 + p_217 + p_218 + p_219 + p_220 + p_221 + p_222 + p_223 + p_224
       + p_225 + p_226 + p_227 + p_228 + p_229 + p_230 + p_231 - x_32 + p_232
       + p_233 + p_234 + p_235 + p_236 + p_237 + p_238 + p_239 + 2 z_2 - y_2
        = 1353
 c34:  x_9 + x_10 + x_11 + x_32 + p_30 + p_31 + p_32 + p_33 + p_34 + p_35
       + p_36 + p_37 + p_38 + p_39 + p_310 + p_311 + p_312 + p_313 + p_314
       + p_315 + p_316 + p_317 + p_318 + p_319 + p_320 + p_321 + p_322 + p_323
       + p_324 + p_325 + p_326 + p_327 + p_328 + p_329 + p_330 + p_331 + p_332
       - x_33 + p_333 + p_334 + p_335 + p_336 + p_337 + p_338 + p_339 + 2 z_3
       - y_3  = 1250
 c35:  x_12 + x_13 + x_14 + x_33 + p_40 + p_41 + p_42 + p_43 + p_44 + p_45
       + p_46 + p_47 + p_48 + p_49 + p_410 + p_411 + p_412 + p_413 + p_414
       + p_415 + p_416 + p_417 + p_418 + p_419 + p_420 + p_421 + p_422 + p_423
       + p_424 + p_425 + p_426 + p_427 + p_428 + p_429 + p_430 + p_431 + p_432
       + p_433 - x_34 + p_434 + p_435 + p_436 + p_437 + p_438 + p_439 + 2 z_4
       - y_4  = 1213
 c36:  x_15 + x_16 + x_17 + x_34 + p_50 + p_51 + p_52 + p_53 + p_54 + p_55
       + p_56 + p_57 + p_58 + p_59 + p_510 + p_511 + p_512 + p_513 + p_514
       + p_515 + p_516 + p_517 + p_518 + p_519 + p_520 + p_521 + p_522 + p_523
       + p_524 + p_525 + p_526 + p_527 + p_528 + p_529 + p_530 + p_531 + p_532
       + p_533 + p_534 - x_35 + p_535 + p_536 + p_537 + p_538 + p_539 + 2 z_5
       - y_5  = 1172
 c37:  x_18 + x_19 + x_20 + x_35 + p_60 + p_61 + p_62 + p_63 + p_64 + p_65
       + p_66 + p_67 + p_68 + p_69 + p_610 + p_611 + p_612 + p_613 + p_614
       + p_615 + p_616 + p_617 + p_618 + p_619 + p_620 + p_621 + p_622 + p_623
       + p_624 + p_625 + p_626 + p_627 + p_628 + p_629 + p_630 + p_631 + p_632
       + p_633 + p_634 + p_635 - x_36 + p_636 + p_637 + p_638 + p_639 + 2 z_6
       - y_6  = 918
 c38:  x_21 + x_22 + x_23 + x_36 + p_70 + p_71 + p_72 + p_73 + p_74 + p_75
       + p_76 + p_77 + p_78 + p_79 + p_710 + p_711 + p_712 + p_713 + p_714
       + p_715 + p_716 + p_717 + p_718 + p_719 + p_720 + p_721 + p_722 + p_723
       + p_724 + p_725 + p_726 + p_727 + p_728 + p_729 + p_730 + p_731 + p_732
       + p_733 + p_734 + p_735 + p_736 - x_37 + p_737 + p_738 + p_739 + 2 z_7
       - y_7  = 859
 c39:  x_24 + x_25 + x_26 + x_37 + p_80 + p_81 + p_82 + p_83 + p_84 + p_85
       + p_86 + p_87 + p_88 + p_89 + p_810 + p_811 + p_812 + p_813 + p_814
       + p_815 + p_816 + p_817 + p_818 + p_819 + p_820 + p_821 + p_822 + p_823
       + p_824 + p_825 + p_826 + p_827 + p_828 + p_829 + p_830 + p_831 + p_832
       + p_833 + p_834 + p_835 + p_836 + p_837 - x_38 + p_838 + p_839 + 2 z_8
       - y_8  = 765
 c40:  x_27 + x_28 + x_29 + x_38 + p_90 + p_91 + p_92 + p_93 + p_94 + p_95
       + p_96 + p_97 + p_98 + p_99 + p_910 + p_911 + p_912 + p_913 + p_914
       + p_915 + p_916 + p_917 + p_918 + p_919 + p_920 + p_921 + p_922 + p_923
       + p_924 + p_925 + p_926 + p_927 + p_928 + p_929 + p_930 + p_931 + p_932
       + p_933 + p_934 + p_935 + p_936 + p_937 + p_938 - x_39 + p_939 + 2 z_9
       - y_9  = 665
 c41:  p_00 + z_0  = 0
 c42:  p_01 + z_0  = 0
 c43:  p_02 + z_0  = 0
 c44:  p_03 + z_0  = 0
 c45:  p_04 + z_0  = 0
 c46:  p_05 + z_0  = 0
 c47:  p_06 + z_0  = 0
 c48:  p_07 + z_0  = 0
 c49:  p_08 + z_0  = 0
 c50:  p_09 + z_0  = 0
 c51:  p_010 + z_0  = 0
 c52:  p_011 + z_0  = 0
 c53:  p_012 + z_0  = 0
 c54:  p_013 + z_0  = 0
 c55:  p_014 + z_0  = 0
 c56:  p_015 + z_0  = 0
 c57:  p_016 + z_0  = 0
 c58:  p_017 + z_0  = 0
 c59:  p_018 + z_0  = 0
 c60:  p_019 + z_0  = 0
 c61:  p_020 + z_0  = 0
 c62:  p_021 + z_0  = 0
 c63:  p_022 + z_0  = 0
 c64:  p_023 + z_0  = 0
 c65:  p_024 + z_0  = 0
 c66:  p_025 + z_0  = 0
 c67:  p_026 + z_0  = 0
 c68:  p_027 + z_0  = 0
 c69:  p_028 + z_0  = 0
 c70:  p_029 + z_0  = 0
 c71:  p_030 + z_0  = 0
 c72:  p_031 + z_0  = 0
 c73:  p_032 + z_0  = 0
 c74:  p_033 + z_0  = 0
 c75:  p_034 + z_0  = 0
 c76:  p_035 + z_0  = 0
 c77:  p_036 + z_0  = 0
 c78:  p_037 + z_0  = 0
 c79:  p_038 + z_0  = 0
 c80:  p_039 + z_0  = 0
 c81:  p_10 + z_1  = 0
 c82:  p_11 + z_1  = 0
 c83:  p_12 + z_1  = 0
 c84:  p_13 + z_1  = 0
 c85:  p_14 + z_1  = 0
 c86:  p_15 + z_1  = 0
 c87:  p_16 + z_1  = 0
 c88:  p_17 + z_1  = 0
 c89:  p_18 + z_1  = 0
 c90:  p_19 + z_1  = 0
 c91:  p_110 + z_1  = 0
 c92:  p_111 + z_1  = 0
 c93:  p_112 + z_1  = 0
 c94:  p_113 + z_1  = 0
 c95:  p_114 + z_1  = 0
 c96:  p_115 + z_1  = 0
 c97:  p_116 + z_1  = 0
 c98:  p_117 + z_1  = 0
 c99:  p_118 + z_1  = 0
 c100: p_119 + z_1  = 0
 c101: p_120 + z_1  = 0
 c102: p_121 + z_1  = 0
 c103: p_122 + z_1  = 0
 c104: p_123 + z_1  = 0
 c105: p_124 + z_1  = 0
 c106: p_125 + z_1  = 0
 c107: p_126 + z_1  = 0
 c108: p_127 + z_1  = 0
 c109: p_128 + z_1  = 0
 c110: p_129 + z_1  = 0
 c111: p_130 + z_1  = 0
 c112: p_131 + z_1  = 0
 c113: p_132 + z_1  = 0
 c114: p_133 + z_1  = 0
 c115: p_134 + z_1  = 0
 c116: p_135 + z_1  = 0
 c117: p_136 + z_1  = 0
 c118: p_137 + z_1  = 0
 c119: p_138 + z_1  = 0
 c120: p_139 + z_1  = 0
 c121: p_20 + z_2  = 0
 c122: p_21 + z_2  = 0
 c123: p_22 + z_2  = 0
 c124: p_23 + z_2  = 0
 c125: p_24 + z_2  = 0
 c126: p_25 + z_2  = 0
 c127: p_26 + z_2  = 0
 c128: p_27 + z_2  = 0
 c129: p_28 + z_2  = 0
 c130: p_29 + z_2  = 0
 c131: p_210 + z_2  = 0
 c132: p_211 + z_2  = 0
 c133: p_212 + z_2  = 0
 c134: p_213 + z_2  = 0
 c135: p_214 + z_2  = 0
 c136: p_215 + z_2  = 0
 c137: p_216 + z_2  = 0
 c138: p_217 + z_2  = 0
 c139: p_218 + z_2  = 0
 c140: p_219 + z_2  = 0
 c141: p_220 + z_2  = 0
 c142: p_221 + z_2  = 0
 c143: p_222 + z_2  = 0
 c144: p_223 + z_2  = 0
 c145: p_224 + z_2  = 0
 c146: p_225 + z_2  = 0
 c147: p_226 + z_2  = 0
 c148: p_227 + z_2  = 0
 c149: p_228 + z_2  = 0
 c150: p_229 + z_2  = 0
 c151: p_230 + z_2  = 0
 c152: p_231 + z_2  = 0
 c153: p_232 + z_2  = 0
 c154: p_233 + z_2  = 0
 c155: p_234 + z_2  = 0
 c156: p_235 + z_2  = 0
 c157: p_236 + z_2  = 0
 c158: p_237 + z_2  = 0
 c159: p_238 + z_2  = 0
 c160: p_239 + z_2  = 0
 c161: p_30 + z_3  = 0
 c162: p_31 + z_3  = 0
 c163: p_32 + z_3  = 0
 c164: p_33 + z_3  = 0
 c165: p_34 + z_3  = 0
 c166: p_35 + z_3  = 0
 c167: p_36 + z_3  = 0
 c168: p_37 + z_3  = 0
 c169: p_38 + z_3  = 0
 c170: p_39 + z_3  = 0
 c171: p_310 + z_3  = 0
 c172: p_311 + z_3  = 0
 c173: p_312 + z_3  = 0
 c174: p_313 + z_3  = 0
 c175: p_314 + z_3  = 0
 c176: p_315 + z_3  = 0
 c177: p_316 + z_3  = 0
 c178: p_317 + z_3  = 0
 c179: p_318 + z_3  = 0
 c180: p_319 + z_3  = 0
 c181: p_320 + z_3  = 0
 c182: p_321 + z_3  = 0
 c183: p_322 + z_3  = 0
 c184: p_323 + z_3  = 0
 c185: p_324 + z_3  = 0
 c186: p_325 + z_3  = 0
 c187: p_326 + z_3  = 0
 c188: p_327 + z_3  = 0
 c189: p_328 + z_3  = 0
 c190: p_329 + z_3  = 0
 c191: p_330 + z_3  = 0
 c192: p_331 + z_3  = 0
 c193: p_332 + z_3  = 0
 c194: p_333 + z_3  = 0
 c195: p_334 + z_3  = 0
 c196: p_335 + z_3  = 0
 c197: p_336 + z_3  = 0
 c198: p_337 + z_3  = 0
 c199: p_338 + z_3  = 0
 c200: p_339 + z_3  = 0
 c201: p_40 + z_4  = 0
 c202: p_41 + z_4  = 0
 c203: p_42 + z_4  = 0
 c204: p_43 + z_4  = 0
 c205: p_44 + z_4  = 0
 c206: p_45 + z_4  = 0
 c207: p_46 + z_4  = 0
 c208: p_47 + z_4  = 0
 c209: p_48 + z_4  = 0
 c210: p_49 + z_4  = 0
 c211: p_410 + z_4  = 0
 c212: p_411 + z_4  = 0
 c213: - 0.284957627118644 x_12 + p_412 + z_4  = 0
 c214: - 0.284957627118644 x_13 + p_413 + z_4  = 0
 c215: - 0.284957627118644 x_14 + p_414 + z_4  = 0
 c216: p_415 + z_4  = 0
 c217: p_416 + z_4  = 0
 c218: p_417 + z_4  = 0
 c219: p_418 + z_4  = 0
 c220: p_419 + z_4  = 0
 c221: p_420 + z_4  = 0
 c222: p_421 + z_4  = 0
 c223: p_422 + z_4  = 0
 c224: p_423 + z_4  = 0
 c225: p_424 + z_4  = 0
 c226: p_425 + z_4  = 0
 c227: p_426 + z_4  = 0
 c228: p_427 + z_4  = 0
 c229: p_428 + z_4  = 0
 c230: p_429 + z_4  = 0
 c231: p_430 + z_4  = 0
 c232: p_431 + z_4  = 0
 c233: p_432 + z_4  = 0
 c234: - 0.284957627118644 x_33 + p_433 + z_4  = 0
 c235: - 0.284957627118644 x_34 + p_434 + z_4  = 0
 c236: p_435 + z_4  = 0
 c237: p_436 + z_4  = 0
 c238: p_437 + z_4  = 0
 c239: p_438 + z_4  = 0
 c240: p_439 + z_4  = 0
 c241: p_50 + z_5  = 0
 c242: p_51 + z_5  = 0
 c243: p_52 + z_5  = 0
 c244: p_53 + z_5  = 0
 c245: p_54 + z_5  = 0
 c246: p_55 + z_5  = 0
 c247: p_56 + z_5  = 0
 c248: p_57 + z_5  = 0
 c249: p_58 + z_5  = 0
 c250: p_59 + z_5  = 0
 c251: p_510 + z_5  = 0
 c252: p_511 + z_5  = 0
 c253: p_512 + z_5  = 0
 c254: p_513 + z_5  = 0
 c255: p_514 + z_5  = 0
 c256: - 0.309497206703911 x_15 + p_515 + z_5  = 0
 c257: - 0.309497206703911 x_16 + p_516 + z_5  = 0
 c258: - 0.309497206703911 x_17 + p_517 + z_5  = 0
 c259: p_518 + z_5  = 0
 c260: p_519 + z_5  = 0
 c261: p_520 + z_5  = 0
 c262: p_521 + z_5  = 0
 c263: p_522 + z_5  = 0
 c264: p_523 + z_5  = 0
 c265: p_524 + z_5  = 0
 c266: p_525 + z_5  = 0
 c267: p_526 + z_5  = 0
 c268: p_527 + z_5  = 0
 c269: p_528 + z_5  = 0
 c270: p_529 + z_5  = 0
 c271: p_530 + z_5  = 0
 c272: p_531 + z_5  = 0
 c273: p_532 + z_5  = 0
 c274: p_533 + z_5  = 0
 c275: - 0.309497206703911 x_34 + p_534 + z_5  = 0
 c276: - 0.309497206703911 x_35 + p_535 + z_5  = 0
 c277: p_536 + z_5  = 0
 c278: p_537 + z_5  = 0
 c279: p_538 + z_5  = 0
 c280: p_539 + z_5  = 0
 c281: p_60 + z_6  = 0
 c282: p_61 + z_6  = 0
 c283: p_62 + z_6  = 0
 c284: p_63 + z_6  = 0
 c285: p_64 + z_6  = 0
 c286: p_65 + z_6  = 0
 c287: p_66 + z_6  = 0
 c288: p_67 + z_6  = 0
 c289: p_68 + z_6  = 0
 c290: p_69 + z_6  = 0
 c291: p_610 + z_6  = 0
 c292: p_611 + z_6  = 0
 c293: p_612 + z_6  = 0
 c294: p_613 + z_6  = 0
 c295: p_614 + z_6  = 0
 c296: p_615 + z_6  = 0
 c297: p_616 + z_6  = 0
 c298: p_617 + z_6  = 0
 c299: - 0.305832147937411 x_18 + p_618 + z_6  = 0
 c300: - 0.305832147937411 x_19 + p_619 + z_6  = 0
 c301: - 0.305832147937411 x_20 + p_620 + z_6  = 0
 c302: p_621 + z_6  = 0
 c303: p_622 + z_6  = 0
 c304: p_623 + z_6  = 0
 c305: p_624 + z_6  = 0
 c306: p_625 + z_6  = 0
 c307: p_626 + z_6  = 0
 c308: p_627 + z_6  = 0
 c309: p_628 + z_6  = 0
 c310: p_629 + z_6  = 0
 c311: p_630 + z_6  = 0
 c312: p_631 + z_6  = 0
 c313: p_632 + z_6  = 0
 c314: p_633 + z_6  = 0
 c315: p_634 + z_6  = 0
 c316: - 0.305832147937411 x_35 + p_635 + z_6  = 0
 c317: - 0.305832147937411 x_36 + p_636 + z_6  = 0
 c318: p_637 + z_6  = 0
 c319: p_638 + z_6  = 0
 c320: p_639 + z_6  = 0
 c321: p_70 + z_7  = 0
 c322: p_71 + z_7  = 0
 c323: p_72 + z_7  = 0
 c324: p_73 + z_7  = 0
 c325: p_74 + z_7  = 0
 c326: p_75 + z_7  = 0
 c327: p_76 + z_7  = 0
 c328: p_77 + z_7  = 0
 c329: p_78 + z_7  = 0
 c330: p_79 + z_7  = 0
 c331: p_710 + z_7  = 0
 c332: p_711 + z_7  = 0
 c333: p_712 + z_7  = 0
 c334: p_713 + z_7  = 0
 c335: p_714 + z_7  = 0
 c336: p_715 + z_7  = 0
 c337: p_716 + z_7  = 0
 c338: p_717 + z_7  = 0
 c339: p_718 + z_7  = 0
 c340: p_719 + z_7  = 0
 c341: p_720 + z_7  = 0
 c342: - 0.417491749174917 x_21 + p_721 + z_7  = 0
 c343: - 0.417491749174917 x_22 + p_722 + z_7  = 0
 c344: - 0.417491749174917 x_23 + p_723 + z_7  = 0
 c345: p_724 + z_7  = 0
 c346: p_725 + z_7  = 0
 c347: p_726 + z_7  = 0
 c348: p_727 + z_7  = 0
 c349: p_728 + z_7  = 0
 c350: p_729 + z_7  = 0
 c351: p_730 + z_7  = 0
 c352: p_731 + z_7  = 0
 c353: p_732 + z_7  = 0
 c354: p_733 + z_7  = 0
 c355: p_734 + z_7  = 0
 c356: p_735 + z_7  = 0
 c357: - 0.417491749174917 x_36 + p_736 + z_7  = 0
 c358: - 0.417491749174917 x_37 + p_737 + z_7  = 0
 c359: p_738 + z_7  = 0
 c360: p_739 + z_7  = 0
 c361: p_80 + z_8  = 0
 c362: p_81 + z_8  = 0
 c363: p_82 + z_8  = 0
 c364: p_83 + z_8  = 0
 c365: p_84 + z_8  = 0
 c366: p_85 + z_8  = 0
 c367: p_86 + z_8  = 0
 c368: p_87 + z_8  = 0
 c369: p_88 + z_8  = 0
 c370: p_89 + z_8  = 0
 c371: p_810 + z_8  = 0
 c372: p_811 + z_8  = 0
 c373: p_812 + z_8  = 0
 c374: p_813 + z_8  = 0
 c375: p_814 + z_8  = 0
 c376: p_815 + z_8  = 0
 c377: p_816 + z_8  = 0
 c378: p_817 + z_8  = 0
 c379: p_818 + z_8  = 0
 c380: p_819 + z_8  = 0
 c381: p_820 + z_8  = 0
 c382: p_821 + z_8  = 0
 c383: p_822 + z_8  = 0
 c384: p_823 + z_8  = 0
 c385: - 0.373429084380611 x_24 + p_824 + z_8  = 0
 c386: - 0.373429084380611 x_25 + p_825 + z_8  = 0
 c387: - 0.373429084380611 x_26 + p_826 + z_8  = 0
 c388: p_827 + z_8  = 0
 c389: p_828 + z_8  = 0
 c390: p_829 + z_8  = 0
 c391: p_830 + z_8  = 0
 c392: p_831 + z_8  = 0
 c393: p_832 + z_8  = 0
 c394: p_833 + z_8  = 0
 c395: p_834 + z_8  = 0
 c396: p_835 + z_8  = 0
 c397: p_836 + z_8  = 0
 c398: - 0.373429084380611 x_37 + p_837 + z_8  = 0
 c399: - 0.373429084380611 x_38 + p_838 + z_8  = 0
 c400: p_839 + z_8  = 0
 c401: p_90 + z_9  = 0
 c402: p_91 + z_9  = 0
 c403: p_92 + z_9  = 0
 c404: p_93 + z_9  = 0
 c405: p_94 + z_9  = 0
 c406: p_95 + z_9  = 0
 c407: p_96 + z_9  = 0
 c408: p_97 + z_9  = 0
 c409: p_98 + z_9  = 0
 c410: p_99 + z_9  = 0
 c411: p_910 + z_9  = 0
 c412: p_911 + z_9  = 0
 c413: p_912 + z_9  = 0
 c414: p_913 + z_9  = 0
 c415: p_914 + z_9  = 0
 c416: p_915 + z_9  = 0
 c417: p_916 + z_9  = 0
 c418: p_917 + z_9  = 0
 c419: p_918 + z_9  = 0
 c420: p_919 + z_9  = 0
 c421: p_920 + z_9  = 0
 c422: p_921 + z_9  = 0
 c423: p_922 + z_9  = 0
 c424: p_923 + z_9  = 0
 c425: p_924 + z_9  = 0
 c426: p_925 + z_9  = 0
 c427: p_926 + z_9  = 0
 c428: - 0.433189655172414 x_27 + p_927 + z_9  = 0
 c429: - 0.433189655172414 x_28 + p_928 + z_9  = 0
 c430: - 0.433189655172414 x_29 + p_929 + z_9  = 0
 c431: p_930 + z_9  = 0
 c432: p_931 + z_9  = 0
 c433: p_932 + z_9  = 0
 c434: p_933 + z_9  = 0
 c435: p_934 + z_9  = 0
 c436: p_935 + z_9  = 0
 c437: p_936 + z_9  = 0
 c438: p_937 + z_9  = 0
 c439: - 0.433189655172414 x_38 + p_938 + z_9  = 0
 c440: - 0.433189655172414 x_39 + p_939 + z_9  = 0
 c441: x_0 + x_1 + x_2 - x_30 <= 1482
 c442: x_3 + x_4 + x_5 + x_30 - x_31 <= 1433
 c443: x_6 + x_7 + x_8 + x_31 - x_32 <= 1353
 c444: x_9 + x_10 + x_11 + x_32 - x_33 <= 1250
 c445: x_12 + x_13 + x_14 + x_33 - x_34 <= 1213
 c446: x_15 + x_16 + x_17 + x_34 - x_35 <= 1172
 c447: x_18 + x_19 + x_20 + x_35 - x_36 <= 918
 c448: x_21 + x_22 + x_23 + x_36 - x_37 <= 859
 c449: x_24 + x_25 + x_26 + x_37 - x_38 <= 765
 c450: x_27 + x_28 + x_29 + x_38 - x_39 <= 665
 c451: 77 x_0 + 103 x_1 + 5170 x_2 + 85 x_3 + 113 x_4 + 5669 x_5 + 96 x_6
       + 129 x_7 + 6464 x_8 + 112 x_9 + 149 x_10 + 7499 x_11 + 130 x_12
       + 174 x_13 + 8705 x_14 + 149 x_15 + 199 x_16 + 9999 x_17 + 169 x_18
       + 225 x_19 + 11294 x_20 + 187 x_21 + 249 x_22 + 12499 x_23 + 203 x_24
       + 270 x_25 + 13535 x_26 + 214 x_27 + 286 x_28 + 14330 x_29 + 20 x_30
       + 20 x_31 + 20 x_32 + 20 x_33 + 20 x_34 + 20 x_35 + 20 x_36 + 20 x_37
       + 20 x_38 + 20 x_39 <= 2109693
Bounds
      x_0 >= 0
      x_1 >= 0
      x_2 >= 0
      x_3 >= 0
      x_4 >= 0
      x_5 >= 0
      x_6 >= 0
      x_7 >= 0
      x_8 >= 0
      x_9 >= 0
      x_10 >= 0
      x_11 >= 0
      x_12 >= 0
      x_13 >= 0
      x_14 >= 0
      x_15 >= 0
      x_16 >= 0
      x_17 >= 0
      x_18 >= 0
      x_19 >= 0
      x_20 >= 0
      x_21 >= 0
      x_22 >= 0
      x_23 >= 0
      x_24 >= 0
      x_25 >= 0
      x_26 >= 0
      x_27 >= 0
      x_28 >= 0
      x_29 >= 0
      x_30 >= 0
      x_31 >= 0
      x_32 >= 0
      x_33 >= 0
      x_34 >= 0
      x_35 >= 0
      x_36 >= 0
      x_37 >= 0
      x_38 >= 0
      x_39 >= 0
Generals
 x_0  x_1  x_2  x_3  x_4  x_5  x_6  x_7  x_8  x_9  x_10  x_11  x_12  x_13 
 x_14  x_15  x_16  x_17  x_18  x_19  x_20  x_21  x_22  x_23  x_24  x_25  x_26 
 x_27  x_28  x_29  x_30  x_31  x_32  x_33  x_34  x_35  x_36  x_37  x_38  x_39 
End
